coords = array2d(1..40, 1..2, [255, 169, 289, 682, 775, 248, 147, 414, 880,
    893, 87, 443, 950, 689, 725, 730, 121, 847, 816, 516, 499, 142, 8,
    649, 796, 108, 309, 411, 90, 351, 880, 791, 17, 992, 300, 194,
    666, 167, 630, 467, 706, 856, 616, 40, 873, 611, 96, 272, 856,
    542, 427, 900, 756, 122, 564, 268, 508, 283, 767, 909, 209, 872,
    724, 849, 815, 83, 76, 790, 232, 436, 636, 166, 119, 39, 179, 956,
    439, 833, 604, 41]);

n = 40;

